(set-logic QF_LIA)
(declare-fun x0 () Int)
(declare-fun x1 () Int)
(declare-fun x2 () Int)
(declare-fun x3 () Int)
(declare-fun x4 () Int)
(declare-fun x5 () Int)
(declare-fun x6 () Int)
(declare-fun x7 () Int)
(declare-fun x8 () Int)
(declare-fun x9 () Int)
(declare-fun A0 () Bool)
(declare-fun A1 () Bool)
(declare-fun A2 () Bool)
(declare-fun A3 () Bool)
(declare-fun A4 () Bool)
(declare-fun A5 () Bool)
(declare-fun A6 () Bool)
(declare-fun A7 () Bool)
(declare-fun A8 () Bool)
(declare-fun A9 () Bool)
(assert (let ((.def_0 (not A1))) (let ((.def_1 (and .def_0 A9))) (let ((.def_2 (not .def_1))) (let ((.def_3 (not A3))) (let ((.def_4 (* (- 1) x2))) (let ((.def_5 (< .def_4 (- 1)))) (let ((.def_6 (not .def_5))) (let ((.def_7 (and .def_6 .def_3))) (let ((.def_8 (and .def_7 .def_2))) (let ((.def_9 (* 1 x1))) (let ((.def_10 (< .def_9 1))) (let ((.def_11 (* 1 x0))) (let ((.def_12 (* (- 1) x7))) (let ((.def_13 (+ .def_12 .def_11))) (let ((.def_14 (< .def_13 1))) (let ((.def_15 (not .def_14))) (let ((.def_16 (and .def_15 .def_10))) (let ((.def_17 (* (- 1) x6))) (let ((.def_18 (< .def_17 1))) (let ((.def_19 (and A4 .def_18))) (let ((.def_20 (not .def_19))) (let ((.def_21 (and .def_20 .def_16))) (let ((.def_22 (not .def_21))) (let ((.def_23 (and .def_22 .def_8))) (let ((.def_24 (not A8))) (let ((.def_25 (and .def_24 .def_3))) (let ((.def_26 (not .def_25))) (let ((.def_27 (* (- 1) x9))) (let ((.def_28 (* (- 1) x1))) (let ((.def_29 (+ .def_28 .def_27))) (let ((.def_30 (< .def_29 (- 1)))) (let ((.def_31 (not A5))) (let ((.def_32 (or .def_31 .def_30))) (let ((.def_33 (not .def_32))) (let ((.def_34 (and .def_33 .def_26))) (let ((.def_35 (not .def_34))) (let ((.def_36 (* 1 x2))) (let ((.def_37 (* 1 x3))) (let ((.def_38 (+ .def_37 .def_36))) (let ((.def_39 (< .def_38 1))) (let ((.def_40 (< .def_28 1))) (let ((.def_41 (and .def_40 .def_39))) (let ((.def_42 (not .def_41))) (let ((.def_43 (* 1 x5))) (let ((.def_44 (* 1 x4))) (let ((.def_45 (+ .def_44 .def_43))) (let ((.def_46 (< .def_45 1))) (let ((.def_47 (not A0))) (let ((.def_48 (and .def_47 .def_46))) (let ((.def_49 (not .def_48))) (let ((.def_50 (or .def_49 .def_42))) (let ((.def_51 (not .def_50))) (let ((.def_52 (and .def_51 .def_35))) (let ((.def_53 (not .def_52))) (let ((.def_54 (and .def_53 .def_23))) (let ((.def_55 (not .def_54))) (let ((.def_56 (< .def_9 (- 1)))) (let ((.def_57 (not .def_56))) (let ((.def_58 (or .def_57 .def_3))) (let ((.def_59 (not .def_18))) (let ((.def_60 (and .def_59 .def_47))) (let ((.def_61 (and .def_60 .def_58))) (let ((.def_62 (* (- 1) x0))) (let ((.def_63 (* (- 1) x3))) (let ((.def_64 (+ .def_63 .def_62))) (let ((.def_65 (< .def_64 1))) (let ((.def_66 (not .def_65))) (let ((.def_67 (not A7))) (let ((.def_68 (or .def_67 .def_66))) (let ((.def_69 (not .def_68))) (let ((.def_70 (and A1 A2))) (let ((.def_71 (and .def_70 .def_69))) (let ((.def_72 (or .def_71 .def_61))) (let ((.def_73 (not .def_72))) (let ((.def_74 (not A2))) (let ((.def_75 (or A3 .def_74))) (let ((.def_76 (* (- 1) x5))) (let ((.def_77 (+ .def_12 .def_76))) (let ((.def_78 (< .def_77 1))) (let ((.def_79 (* 1 x7))) (let ((.def_80 (< .def_79 (- 1)))) (let ((.def_81 (not .def_80))) (let ((.def_82 (or .def_81 .def_78))) (let ((.def_83 (not .def_82))) (let ((.def_84 (= .def_83 .def_75))) (let ((.def_85 (= A1 .def_74))) (let ((.def_86 (not .def_85))) (let ((.def_87 (or A9 A3))) (let ((.def_88 (not .def_87))) (let ((.def_89 (and .def_88 .def_86))) (let ((.def_90 (not .def_89))) (let ((.def_91 (or .def_90 .def_84))) (let ((.def_92 (and .def_91 .def_73))) (let ((.def_93 (and .def_92 .def_55))) (let ((.def_94 (not .def_93))) (let ((.def_95 (< .def_44 (- 1)))) (let ((.def_96 (not .def_95))) (let ((.def_97 (and A6 .def_96))) (let ((.def_98 (< .def_37 1))) (let ((.def_99 (and .def_98 A8))) (let ((.def_100 (not .def_99))) (let ((.def_101 (and .def_100 .def_97))) (let ((.def_102 (not .def_101))) (let ((.def_103 (* (- 1) x8))) (let ((.def_104 (< .def_103 (- 1)))) (let ((.def_105 (* 1 x6))) (let ((.def_106 (< .def_105 (- 1)))) (let ((.def_107 (or .def_106 .def_104))) (let ((.def_108 (not .def_107))) (let ((.def_109 (+ .def_103 .def_12))) (let ((.def_110 (< .def_109 1))) (let ((.def_111 (not .def_110))) (let ((.def_112 (or .def_111 .def_24))) (let ((.def_113 (not .def_112))) (let ((.def_114 (and .def_113 .def_108))) (let ((.def_115 (not .def_114))) (let ((.def_116 (and .def_115 .def_102))) (let ((.def_117 (not .def_116))) (let ((.def_118 (< .def_105 1))) (let ((.def_119 (not .def_118))) (let ((.def_120 (and .def_119 .def_24))) (let ((.def_121 (* (- 1) x4))) (let ((.def_122 (+ .def_121 .def_43))) (let ((.def_123 (< .def_122 1))) (let ((.def_124 (not .def_123))) (let ((.def_125 (or .def_59 .def_124))) (let ((.def_126 (not .def_125))) (let ((.def_127 (and .def_126 .def_120))) (let ((.def_128 (* 1 x8))) (let ((.def_129 (< .def_128 1))) (let ((.def_130 (+ .def_121 .def_11))) (let ((.def_131 (< .def_130 (- 1)))) (let ((.def_132 (and .def_131 .def_129))) (let ((.def_133 (not .def_132))) (let ((.def_134 (+ .def_76 .def_105))) (let ((.def_135 (< .def_134 (- 1)))) (let ((.def_136 (and .def_135 .def_67))) (let ((.def_137 (and .def_136 .def_133))) (let ((.def_138 (and .def_137 .def_127))) (let ((.def_139 (not .def_138))) (let ((.def_140 (and .def_139 .def_117))) (let ((.def_141 (+ .def_43 .def_44))) (let ((.def_142 (< .def_141 1))) (let ((.def_143 (and .def_104 .def_142))) (let ((.def_144 (+ .def_11 .def_128))) (let ((.def_145 (< .def_144 1))) (let ((.def_146 (not .def_145))) (let ((.def_147 (and .def_146 .def_10))) (let ((.def_148 (not .def_147))) (let ((.def_149 (or .def_148 .def_143))) (let ((.def_150 (not .def_149))) (let ((.def_151 (* 1 x9))) (let ((.def_152 (< .def_151 (- 1)))) (let ((.def_153 (not .def_152))) (let ((.def_154 (and .def_153 .def_74))) (let ((.def_155 (not .def_154))) (let ((.def_156 (< .def_63 (- 1)))) (let ((.def_157 (and A2 .def_156))) (let ((.def_158 (not .def_157))) (let ((.def_159 (= .def_158 .def_155))) (let ((.def_160 (not .def_159))) (let ((.def_161 (= .def_160 .def_150))) (let ((.def_162 (and A5 .def_74))) (let ((.def_163 (or .def_3 A7))) (let ((.def_164 (or .def_163 .def_162))) (let ((.def_165 (not .def_164))) (let ((.def_166 (and .def_31 A9))) (let ((.def_167 (not .def_166))) (let ((.def_168 (+ .def_11 .def_121))) (let ((.def_169 (< .def_168 (- 1)))) (let ((.def_170 (and A4 .def_169))) (let ((.def_171 (not .def_170))) (let ((.def_172 (= .def_171 .def_167))) (let ((.def_173 (and .def_172 .def_165))) (let ((.def_174 (not .def_173))) (let ((.def_175 (or .def_174 .def_161))) (let ((.def_176 (not .def_175))) (let ((.def_177 (or .def_176 .def_140))) (let ((.def_178 (and .def_177 .def_94))) (let ((.def_179 (and A2 .def_31))) (let ((.def_180 (not .def_179))) (let ((.def_181 (+ .def_151 .def_12))) (let ((.def_182 (< .def_181 1))) (let ((.def_183 (or .def_182 A2))) (let ((.def_184 (or .def_183 .def_180))) (let ((.def_185 (+ .def_76 .def_128))) (let ((.def_186 (< .def_185 1))) (let ((.def_187 (not .def_186))) (let ((.def_188 (or .def_187 A1))) (let ((.def_189 (not A4))) (let ((.def_190 (and .def_189 .def_74))) (let ((.def_191 (and .def_190 .def_188))) (let ((.def_192 (not .def_191))) (let ((.def_193 (or .def_192 .def_184))) (let ((.def_194 (+ .def_63 .def_79))) (let ((.def_195 (< .def_194 (- 1)))) (let ((.def_196 (= A1 .def_195))) (let ((.def_197 (not A9))) (let ((.def_198 (and A3 .def_197))) (let ((.def_199 (not .def_198))) (let ((.def_200 (and .def_199 .def_196))) (let ((.def_201 (not A6))) (let ((.def_202 (not .def_129))) (let ((.def_203 (and .def_202 .def_201))) (let ((.def_204 (not .def_203))) (let ((.def_205 (< .def_76 1))) (let ((.def_206 (not .def_205))) (let ((.def_207 (+ .def_121 .def_76))) (let ((.def_208 (< .def_207 1))) (let ((.def_209 (not .def_208))) (let ((.def_210 (or .def_209 .def_206))) (let ((.def_211 (and .def_210 .def_204))) (let ((.def_212 (not .def_211))) (let ((.def_213 (or .def_212 .def_200))) (let ((.def_214 (or .def_213 .def_193))) (let ((.def_215 (not .def_104))) (let ((.def_216 (+ .def_79 .def_128))) (let ((.def_217 (< .def_216 (- 1)))) (let ((.def_218 (not .def_217))) (let ((.def_219 (and .def_218 .def_215))) (let ((.def_220 (not .def_219))) (let ((.def_221 (+ .def_128 .def_62))) (let ((.def_222 (< .def_221 (- 1)))) (let ((.def_223 (+ .def_27 .def_9))) (let ((.def_224 (< .def_223 1))) (let ((.def_225 (= .def_224 .def_222))) (let ((.def_226 (not .def_225))) (let ((.def_227 (and .def_226 .def_220))) (let ((.def_228 (not .def_227))) (let ((.def_229 (+ .def_63 .def_12))) (let ((.def_230 (< .def_229 1))) (let ((.def_231 (not .def_230))) (let ((.def_232 (and .def_189 .def_231))) (let ((.def_233 (not .def_232))) (let ((.def_234 (+ .def_62 .def_79))) (let ((.def_235 (< .def_234 1))) (let ((.def_236 (and .def_235 .def_3))) (let ((.def_237 (not .def_236))) (let ((.def_238 (and .def_237 .def_233))) (let ((.def_239 (not .def_238))) (let ((.def_240 (or .def_239 .def_228))) (let ((.def_241 (not .def_240))) (let ((.def_242 (and .def_215 .def_3))) (let ((.def_243 (not .def_242))) (let ((.def_244 (or .def_189 A0))) (let ((.def_245 (not .def_244))) (let ((.def_246 (= .def_245 .def_243))) (let ((.def_247 (not .def_246))) (let ((.def_248 (+ .def_151 .def_28))) (let ((.def_249 (< .def_248 (- 1)))) (let ((.def_250 (not .def_249))) (let ((.def_251 (and A4 .def_250))) (let ((.def_252 (not .def_251))) (let ((.def_253 (< .def_12 1))) (let ((.def_254 (or A4 .def_253))) (let ((.def_255 (or .def_254 .def_252))) (let ((.def_256 (not .def_255))) (let ((.def_257 (and .def_256 .def_247))) (let ((.def_258 (not .def_257))) (let ((.def_259 (or .def_258 .def_241))) (let ((.def_260 (not .def_259))) (let ((.def_261 (or .def_260 .def_214))) (let ((.def_262 (not .def_261))) (let ((.def_263 (or .def_57 A1))) (let ((.def_264 (not .def_263))) (let ((.def_265 (< .def_79 1))) (let ((.def_266 (not .def_265))) (let ((.def_267 (or A9 .def_266))) (let ((.def_268 (and .def_267 .def_264))) (let ((.def_269 (+ .def_76 .def_11))) (let ((.def_270 (< .def_269 (- 1)))) (let ((.def_271 (not .def_270))) (let ((.def_272 (and .def_67 .def_271))) (let ((.def_273 (< .def_151 1))) (let ((.def_274 (= .def_74 .def_273))) (let ((.def_275 (not .def_274))) (let ((.def_276 (or .def_275 .def_272))) (let ((.def_277 (or .def_276 .def_268))) (let ((.def_278 (and .def_197 A8))) (let ((.def_279 (not .def_278))) (let ((.def_280 (or .def_67 .def_266))) (let ((.def_281 (and .def_280 .def_279))) (let ((.def_282 (< .def_27 1))) (let ((.def_283 (or .def_282 .def_24))) (let ((.def_284 (+ .def_27 .def_103))) (let ((.def_285 (< .def_284 1))) (let ((.def_286 (not .def_285))) (let ((.def_287 (and .def_197 .def_286))) (let ((.def_288 (not .def_287))) (let ((.def_289 (and .def_288 .def_283))) (let ((.def_290 (and .def_289 .def_281))) (let ((.def_291 (not .def_290))) (let ((.def_292 (= .def_291 .def_277))) (let ((.def_293 (and .def_215 .def_31))) (let ((.def_294 (= .def_189 .def_201))) (let ((.def_295 (or .def_294 .def_293))) (let ((.def_296 (+ .def_9 .def_37))) (let ((.def_297 (< .def_296 1))) (let ((.def_298 (+ .def_43 .def_103))) (let ((.def_299 (< .def_298 (- 1)))) (let ((.def_300 (or .def_299 .def_297))) (let ((.def_301 (not .def_300))) (let ((.def_302 (< .def_12 (- 1)))) (let ((.def_303 (or .def_31 .def_302))) (let ((.def_304 (not .def_303))) (let ((.def_305 (and .def_304 .def_301))) (let ((.def_306 (= .def_305 .def_295))) (let ((.def_307 (+ .def_27 .def_79))) (let ((.def_308 (< .def_307 (- 1)))) (let ((.def_309 (not .def_308))) (let ((.def_310 (or .def_309 A5))) (let ((.def_311 (+ .def_44 .def_151))) (let ((.def_312 (< .def_311 1))) (let ((.def_313 (and .def_312 .def_197))) (let ((.def_314 (not .def_313))) (let ((.def_315 (and .def_314 .def_310))) (let ((.def_316 (+ .def_128 .def_151))) (let ((.def_317 (< .def_316 1))) (let ((.def_318 (not .def_317))) (let ((.def_319 (or .def_318 A4))) (let ((.def_320 (not .def_319))) (let ((.def_321 (+ .def_43 .def_79))) (let ((.def_322 (< .def_321 (- 1)))) (let ((.def_323 (not .def_322))) (let ((.def_324 (and .def_323 A2))) (let ((.def_325 (and .def_324 .def_320))) (let ((.def_326 (not .def_325))) (let ((.def_327 (or .def_326 .def_315))) (let ((.def_328 (not .def_327))) (let ((.def_329 (or .def_328 .def_306))) (let ((.def_330 (and .def_329 .def_292))) (let ((.def_331 (or .def_330 .def_262))) (let ((.def_332 (not .def_331))) (let ((.def_333 (or .def_332 .def_178))) (let ((.def_334 (not .def_333))) (let ((.def_335 (<= x9 1))) (let ((.def_336 (<= 0 x9))) (let ((.def_337 (<= x8 1))) (let ((.def_338 (<= 0 x8))) (let ((.def_339 (<= x7 1))) (let ((.def_340 (<= 0 x7))) (let ((.def_341 (<= x6 1))) (let ((.def_342 (<= 0 x6))) (let ((.def_343 (<= x5 1))) (let ((.def_344 (<= 0 x5))) (let ((.def_345 (<= x4 1))) (let ((.def_346 (<= 0 x4))) (let ((.def_347 (<= x3 1))) (let ((.def_348 (<= 0 x3))) (let ((.def_349 (<= x2 1))) (let ((.def_350 (<= 0 x2))) (let ((.def_351 (<= x1 1))) (let ((.def_352 (<= 0 x1))) (let ((.def_353 (<= x0 1))) (let ((.def_354 (<= 0 x0))) (let ((.def_355 (and .def_354 .def_353 .def_352 .def_351 .def_350 .def_349 .def_348 .def_347 .def_346 .def_345 .def_344 .def_343 .def_342 .def_341 .def_340 .def_339 .def_338 .def_337 .def_336 .def_335 .def_334))) .def_355)))))))))))))))))))))))))))))))))))))))))))))))))))))))))))))))))))))))))))))))))))))))))))))))))))))))))))))))))))))))))))))))))))))))))))))))))))))))))))))))))))))))))))))))))))))))))))))))))))))))))))))))))))))))))))))))))))))))))))))))))))))))))))))))))))))))))))))))))))))))))))))))))))))))))))))))))))))))))))))))))))))))))))))))))))))))))))))))))))))
(check-sat)
